p cnf 30 28
-1 8 14 22 25 -2 26 0 
-3 27 0 
-3 26 0 
-4 10 17 27 0 
-5 27 0 
-4 10 17 27 0 
-6 -7 -1 8 14 22 25 27 0 
-8 1 14 22 25 -9 26 0 
-10 4 17 28 0 
-11 12 27 0 
-12 11 26 0 
-13 -5 27 0 
-3 26 0 
-12 11 27 0 
-14 1 8 22 25 26 0 
-15 18 26 0 
-16 -17 4 10 28 0 
-18 15 27 0 
-18 15 26 0 
-19 21 23 26 0 
-20 27 0 
-21 19 23 27 0 
-12 11 26 0 
-22 1 8 14 25 -23 19 21 28 0 
-4 10 17 26 0 
-13 29 0 
-20 -24 -25 1 8 14 22 30 0 
-20 -3 29 0 
